6900
147,72,145,136,112,64,80,14,78,15,133,122,77,131,23,38,32,67,43,109,138,134,54,92,46,51,20,25,90,83,141,81,29,110,47,120,42,9,28,6,37,2,19,99,114,102,70,108,86,135,50,137,132,58,55,65,85,142,18,75,26,56,146,124,97,143,100,5,107,95,82,103,98,1,87,34,76,73,48,63,30,84,7,8,89,96,35,93,52,126,33,105,111,16,59,79,121,88,94,10,113,3,62,149,22,125,21,44,71,45,115,150,104,4,128,68,119,91,106,13,74,123,31,27,117,140,60,66,17,130,148,11,61,36,69,127,118,40,139,53,24,12,116,101,39,57,41,129,144,49,147
